outputs/c104.txt.out
filename: C104
Vehicles: 25, Capacity: 200
Total customers : 101
No of routes: 13
Route #1: 20 21 22 23 26 28 30 10
Route #2: 11
Route #3: 13 17 18 19 15 16 14 12
Route #4: 8 9 6 4 1 2 98
Route #5: 96 95 94 92 93 97 100 99 91 89 90
Route #6: 87 86 88 85 84 83 82 78 81
Route #7: 76 71 70 73 77 79 80 3 7 5
Route #8: 75 25 27 29 34 33 35 31 32
Route #9: 36 39 38 37 24
Route #10: 67 65 63 62 74 72 61 64 68 40 41
Route #11: 43 42 44 45 48 51 50 52 49 46 47
Route #12: 55 54 53 56 58 60 59 57
Route #13: 66 69
Cost 1119
